HUN,8,6,858
2,61,5,55,3,92,0,5,4,54,1,38
3,14,0,24,2,9,4,49,5,6,1,74
2,99,4,7,1,73,3,16,5,60,0,77
2,54,0,67,1,25,3,40,4,28,5,97
2,71,0,81,1,42,4,69,5,12,3,82
2,77,0,91,4,100,3,9,1,14,5,80
3,66,1,43,0,93,2,12,5,7,4,84
0,5,2,100,3,88,5,24,1,87,4,51
